40 7 1
1 1 0 330
1 1 0 543
1 3 0 458 1 458 4 458
1 4 0 500 1 260 2 500 4 260
1 1 3 381
1 1 3 712
1 2 3 339 4 339
1 1 0 304
1 1 3 373
1 2 3 332 4 332
1 1 3 417
1 1 3 460
1 1 3 548
1 2 3 483 3 243
1 2 0 465 2 465
1 2 3 421 6 181
1 1 3 629
1 1 0 507
1 1 0 432
1 1 3 756
1 1 3 289
1 1 3 700
1 1 3 329
1 1 0 541
1 2 3 508 6 508
1 1 3 548
1 1 3 677
1 1 3 380
1 1 0 463
1 1 3 479
1 2 0 451 2 451
1 3 0 484 1 484 2 484
1 2 0 385 2 385
1 2 3 335 4 335
1 1 3 425
1 2 3 438 6 438
1 2 0 377 2 377
1 1 3 378
1 1 3 369
1 1 3 437
